p tdp 65 112
1 14
1 2
2 15
2 3
3 16
3 4
4 17
4 5
5 18
5 6
6 19
6 7
7 20
7 8
8 21
8 9
9 22
9 10
10 23
10 11
11 24
11 12
12 25
12 13
13 26
14 27
14 15
15 28
15 16
16 29
16 17
17 30
17 18
18 31
18 19
19 32
19 20
20 33
20 21
21 34
21 22
22 35
22 23
23 36
23 24
24 37
24 25
25 38
25 26
26 39
27 40
27 28
28 41
28 29
29 42
29 30
30 43
30 31
31 44
31 32
32 45
32 33
33 46
33 34
34 47
34 35
35 48
35 36
36 49
36 37
37 50
37 38
38 51
38 39
39 52
40 53
40 41
41 54
41 42
42 55
42 43
43 56
43 44
44 57
44 45
45 58
45 46
46 59
46 47
47 60
47 48
48 61
48 49
49 62
49 50
50 63
50 51
51 64
51 52
52 65
53 54
54 55
55 56
56 57
57 58
58 59
59 60
60 61
61 62
62 63
63 64
64 65
